p tw 40 84
0 1
0 14
0 13
0 39
0 11
0 30
0 38
1 9
2 3
2 15
2 31
2 4
2 22
2 25
3 4
3 5
3 15
3 7
3 20
3 12
3 37
4 13
4 20
4 27
4 19
4 36
5 21
5 18
5 7
5 23
6 7
6 36
6 17
7 8
7 32
8 15
8 19
8 16
8 29
9 10
9 22
10 12
10 38
11 12
11 18
11 31
11 17
12 24
12 30
13 16
13 18
13 34
13 36
14 25
14 23
15 25
16 22
16 39
16 27
16 25
17 18
17 34
17 29
18 26
19 31
20 25
21 27
22 23
22 25
23 26
24 34
24 32
24 31
25 26
26 28
26 34
26 32
26 33
29 30
29 37
30 35
32 33
33 34
34 35
